NAME: n90q25E.tsp, 90 nodes, semilla 444
COMMENT: Problema aleatorio de norma euclidea
DIMENSION: 90
CAPACITY: 25
EDGE_WEIGHT_TYPE: EUC_2D
NODE_COORD_SECTION
1   0.0000   0.0000
2 152.0000 -11.0000
3 -319.0000 -425.0000
4  62.0000 -493.0000
5  28.0000 -462.0000
6 115.0000  65.0000
7 390.0000 220.0000
8 319.0000 -96.0000
9  54.0000 190.0000
10 -415.0000 -149.0000
11 142.0000 -95.0000
12 -352.0000 -79.0000
13 -72.0000  67.0000
14 491.0000 -385.0000
15 -319.0000 425.0000
16  12.0000 421.0000
17 157.0000 -354.0000
18 338.0000 336.0000
19 -477.0000 243.0000
20 495.0000 361.0000
21 -326.0000 424.0000
22 -377.0000 259.0000
23  12.0000 -215.0000
24 434.0000 386.0000
25 450.0000 -292.0000
26 -340.0000 467.0000
27 161.0000 210.0000
28 243.0000  -2.0000
29 115.0000 365.0000
30 -280.0000 -301.0000
31 -176.0000 -191.0000
32 -126.0000  36.0000
33 367.0000 -115.0000
34 -177.0000 -489.0000
35 200.0000  52.0000
36 461.0000 -200.0000
37 -444.0000 471.0000
38 296.0000 124.0000
39 -273.0000 485.0000
40 -100.0000 -200.0000
41 -396.0000 294.0000
42 -474.0000 -69.0000
43 -455.0000 -492.0000
44 134.0000   1.0000
45 -75.0000 163.0000
46 -128.0000 -382.0000
47  56.0000 -77.0000
48 -453.0000 -78.0000
49 -462.0000 284.0000
50 448.0000  90.0000
51 -433.0000 137.0000
52 367.0000 -480.0000
53 104.0000 343.0000
54 -305.0000 -54.0000
55 277.0000 136.0000
56 -291.0000 -432.0000
57   2.0000 -229.0000
58 352.0000 -261.0000
59 -112.0000 -49.0000
60 -286.0000 -496.0000
61  22.0000 408.0000
62 -319.0000 498.0000
63 -224.0000 -248.0000
64 318.0000  71.0000
65 238.0000 -206.0000
66 173.0000 257.0000
67 256.0000 -261.0000
68 -337.0000 -255.0000
69 -248.0000 -38.0000
70 -35.0000 -233.0000
71 488.0000 193.0000
72  53.0000 180.0000
73  63.0000 452.0000
74 -342.0000 -397.0000
75 -370.0000 402.0000
76 -353.0000 453.0000
77 303.0000 298.0000
78 236.0000 -243.0000
79 464.0000 224.0000
80 -484.0000   3.0000
81 196.0000 391.0000
82 -386.0000 253.0000
83 -21.0000 273.0000
84 -237.0000 -397.0000
85 -212.0000 -195.0000
86 367.0000 -463.0000
87 -40.0000 289.0000
88  92.0000 -278.0000
89 360.0000 -24.0000
90 -149.0000 219.0000
DISPLAY_DATA_SECTION:
 1  250  250
 2  326  244
 3   90   37
 4  281    3
 5  264   19
 6  307  282
 7  445  360
 8  409  202
 9  277  345
10   42  175
11  321  202
12   74  210
13  214  283
14  495   57
15   90  462
16  256  460
17  328   73
18  419  418
19   11  371
20  497  430
21   87  462
22   61  379
23  256  142
24  467  443
25  475  104
26   80  483
27  330  355
28  371  249
29  307  432
30  110   99
31  162  154
32  187  268
33  433  192
34  161    5
35  350  276
36  480  150
37   28  485
38  398  312
39  113  492
40  200  150
41   52  397
42   13  215
43   22    4
44  317  250
45  212  331
46  186   59
47  278  211
48   23  211
49   19  392
50  474  295
51   33  318
52  433   10
53  302  421
54   97  223
55  388  318
56  104   34
57  251  135
58  426  119
59  194  225
60  107    2
61  261  454
62   90  499
63  138  126
64  409  285
65  369  147
66  336  378
67  378  119
68   81  122
69  126  231
70  232  133
71  494  346
72  276  340
73  281  476
74   79   51
75   65  451
76   73  476
77  401  399
78  368  128
79  482  362
80    8  251
81  348  445
82   57  376
83  239  386
84  131   51
85  144  152
86  433   18
87  230  394
88  296  111
89  430  238
90  175  359
DEMAND_SECTION
1 1
2 5
3 6
4 2
5 8
6 9
7 -4
8 -4
9 -7
10 -5
11 7
12 -6
13 -10
14 6
15 4
16 -8
17 -6
18 -2
19 5
20 0
21 4
22 -6
23 -10
24 -9
25 7
26 -7
27 4
28 2
29 2
30 -4
31 9
32 -10
33 6
34 9
35 0
36 -5
37 0
38 -2
39 6
40 -2
41 8
42 3
43 6
44 6
45 0
46 3
47 4
48 -5
49 7
50 5
51 -6
52 0
53 -9
54 4
55 8
56 -1
57 -10
58 9
59 0
60 -5
61 0
62 -1
63 8
64 2
65 -8
66 8
67 -1
68 -4
69 -9
70 -10
71 -7
72 -4
73 -2
74 6
75 8
76 -4
77 6
78 2
79 3
80 9
81 -10
82 -4
83 -7
84 4
85 -8
86 4
87 -8
88 3
89 10
90 -8
EOF